c read Graph
c width = 3
c time = 17 ms
c width = 3
c time = 5122 ms
s td 12 4 15
b 1 1 2 6
b 2 2 3 6 7
b 3 3 4 9 10
b 4 3 6 7 12
b 5 3 7 8 12
b 6 3 9 10 14
b 7 3 8 12 13
b 8 3 8 13 14
b 9 3 8 9 14
b 10 10 14 15
b 11 6 11 12
b 12 4 5 10
1 2
2 4
3 12
3 6
4 11
4 5
5 7
6 10
6 9
7 8
8 9
